c generated by sgen
p cnf 89 188
-2 -3 -4 0
-1 -3 -4 0
-1 -2 -4 0
-1 -2 -3 0
-6 -7 -8 0
-5 -7 -8 0
-5 -6 -8 0
-5 -6 -7 0
-10 -11 -12 0
-9 -11 -12 0
-9 -10 -12 0
-9 -10 -11 0
-14 -15 -16 0
-13 -15 -16 0
-13 -14 -16 0
-13 -14 -15 0
-18 -19 -20 0
-17 -19 -20 0
-17 -18 -20 0
-17 -18 -19 0
-22 -23 -24 0
-21 -23 -24 0
-21 -22 -24 0
-21 -22 -23 0
-26 -27 -28 0
-25 -27 -28 0
-25 -26 -28 0
-25 -26 -27 0
-30 -31 -32 0
-29 -31 -32 0
-29 -30 -32 0
-29 -30 -31 0
-34 -35 -36 0
-33 -35 -36 0
-33 -34 -36 0
-33 -34 -35 0
-38 -39 -40 0
-37 -39 -40 0
-37 -38 -40 0
-37 -38 -39 0
-42 -43 -44 0
-41 -43 -44 0
-41 -42 -44 0
-41 -42 -43 0
-46 -47 -48 0
-45 -47 -48 0
-45 -46 -48 0
-45 -46 -47 0
-50 -51 -52 0
-49 -51 -52 0
-49 -50 -52 0
-49 -50 -51 0
-54 -55 -56 0
-53 -55 -56 0
-53 -54 -56 0
-53 -54 -55 0
-58 -59 -60 0
-57 -59 -60 0
-57 -58 -60 0
-57 -58 -59 0
-62 -63 -64 0
-61 -63 -64 0
-61 -62 -64 0
-61 -62 -63 0
-66 -67 -68 0
-65 -67 -68 0
-65 -66 -68 0
-65 -66 -67 0
-70 -71 -72 0
-69 -71 -72 0
-69 -70 -72 0
-69 -70 -71 0
-74 -75 -76 0
-73 -75 -76 0
-73 -74 -76 0
-73 -74 -75 0
-78 -79 -80 0
-77 -79 -80 0
-77 -78 -80 0
-77 -78 -79 0
-82 -83 -84 0
-81 -83 -84 0
-81 -82 -84 0
-81 -82 -83 0
-85 -86 -87 0
-85 -86 -88 0
-85 -86 -89 0
-85 -87 -88 0
-85 -87 -89 0
-85 -88 -89 0
-86 -87 -88 0
-86 -87 -89 0
-86 -88 -89 0
-87 -88 -89 0
67 47 21 0
55 47 21 0
55 67 21 0
55 67 47 0
44 73 13 0
80 73 13 0
80 44 13 0
80 44 73 0
10 6 14 0
69 6 14 0
69 10 14 0
69 10 6 0
26 61 85 0
83 61 85 0
83 26 85 0
83 26 61 0
50 89 70 0
56 89 70 0
56 50 70 0
56 50 89 0
46 39 1 0
84 39 1 0
84 46 1 0
84 46 39 0
62 16 52 0
36 16 52 0
36 62 52 0
36 62 16 0
68 38 27 0
32 38 27 0
32 68 27 0
32 68 38 0
2 71 79 0
18 71 79 0
18 2 79 0
18 2 71 0
66 57 12 0
88 57 12 0
88 66 12 0
88 66 57 0
22 29 64 0
76 29 64 0
76 22 64 0
76 22 29 0
82 72 59 0
35 72 59 0
35 82 59 0
35 82 72 0
75 28 19 0
34 28 19 0
34 75 19 0
34 75 28 0
11 63 20 0
45 63 20 0
45 11 20 0
45 11 63 0
78 87 48 0
31 87 48 0
31 78 48 0
31 78 87 0
8 77 60 0
51 77 60 0
51 8 60 0
51 8 77 0
54 25 58 0
15 25 58 0
15 54 58 0
15 54 25 0
40 5 53 0
74 5 53 0
74 40 53 0
74 40 5 0
81 65 17 0
43 65 17 0
43 81 17 0
43 81 65 0
3 30 42 0
33 30 42 0
33 3 42 0
33 3 30 0
7 86 4 0
24 86 4 0
24 7 4 0
24 7 86 0
49 9 23 0
49 9 41 0
49 9 37 0
49 23 41 0
49 23 37 0
49 41 37 0
9 23 41 0
9 23 37 0
9 41 37 0
23 41 37 0
